120
150
91
65
46
37
44
84
39
88
26
94
71
79
56
66
46
38
79
71
84
35
27
31
21
29
58
33
29
56
94
23
58
26
43
48
49
95
21
94
56
84
27
91
20
53
39
79
33
71
35
44
84
27
53
69
62
56
39
55
95
49
99
84
65
39
94
69
75
44
65
84
94
56
38
34
70
38
42
58
27
65
43
75
49
99
59
38
66
84
53
80
71
48
70
84
70
48
66
56
94
32
99
79
43
49
94
56
71
31
48
56
94
94
66
52
69
81
65
84
56
32
